decision_x1=[0,7];
decision_x2=[0,7];
decision_x3=[0,7];
decision_x4=[0,7];
decision_x5=[0,7];
decision_x6=[0,7];
decision_x7=[0,7];
decision_x8=[0,7];
decision_x9=[0,7];
decision_x10=[0,7];
decision_x11=[0,7];
decision_x12=[0,7];
decision_x13=[0,7];
decision_x14=[0,7];
random_y1=[0,7];
random_y2=[0,7];
random_y3=[0,7];
random_y4=[0,7];
random_y5=[0,7];
random_y6=[0,7];
constraint_x2_x1=[
0,0,5.2|
0,1,0.75|
0,2,6.7|
0,3,8.3|
0,4,4.5|
0,5,1|
0,6,2.5|
0,7,0.27|
1,0,8.1|
1,1,2.1|
1,2,3.8|
1,3,0.59|
1,4,8.1|
1,5,5|
1,6,9.2|
1,7,4.2|
2,0,0.71|
2,1,3.1|
2,2,6.3|
2,3,8.6|
2,4,0.88|
2,5,0.44|
2,6,0.22|
2,7,5.9|
3,0,7.9|
3,1,2.9|
3,2,2.3|
3,3,9.9|
3,4,6.2|
3,5,9.3|
3,6,0.31|
3,7,6|
4,0,1.2|
4,1,3|
4,2,8.5|
4,3,8.4|
4,4,4.6|
4,5,4.3|
4,6,2|
4,7,6|
5,0,1.7|
5,1,5.5|
5,2,8.6|
5,3,6.6|
5,4,1.5|
5,5,6.8|
5,6,2.8|
5,7,0.74|
6,0,1.2|
6,1,8.2|
6,2,4.7|
6,3,3.5|
6,4,1.1|
6,5,0.46|
6,6,0.41|
6,7,3.5|
7,0,1.4|
7,1,9.2|
7,2,1.2|
7,3,9.9|
7,4,1.5|
7,5,2.3|
7,6,3|
7,7,7.5|
];
constraint_x3_x2=[
0,0,3.9|
0,1,4.3|
0,2,1.1|
0,3,0.57|
0,4,10|
0,5,0.031|
0,6,6.5|
0,7,3|
1,0,9.7|
1,1,6.8|
1,2,5.8|
1,3,0.027|
1,4,6.7|
1,5,2.7|
1,6,0.45|
1,7,9.6|
2,0,6.2|
2,1,7.1|
2,2,2.4|
2,3,3.9|
2,4,2.3|
2,5,7.1|
2,6,4.3|
2,7,5.2|
3,0,2.4|
3,1,1.5|
3,2,6.2|
3,3,7.4|
3,4,9.5|
3,5,2.8|
3,6,6.1|
3,7,0.74|
4,0,5.3|
4,1,8.3|
4,2,2.9|
4,3,2.1|
4,4,6.5|
4,5,2.7|
4,6,6.4|
4,7,0.26|
5,0,3.1|
5,1,3.6|
5,2,8.7|
5,3,8.5|
5,4,2.5|
5,5,8|
5,6,6.1|
5,7,4.2|
6,0,3.1|
6,1,9.6|
6,2,8.1|
6,3,5.3|
6,4,3.3|
6,5,1.4|
6,6,6.4|
6,7,6.7|
7,0,1.1|
7,1,4.9|
7,2,4.4|
7,3,9.4|
7,4,2.4|
7,5,4.5|
7,6,6.3|
7,7,5.7|
];
constraint_x4_x3=[
0,0,7.8|
0,1,3.6|
0,2,6.4|
0,3,0.82|
0,4,9.4|
0,5,0.84|
0,6,8.7|
0,7,2.6|
1,0,3.3|
1,1,1.9|
1,2,0.11|
1,3,2.7|
1,4,8|
1,5,4.8|
1,6,1|
1,7,8.5|
2,0,8.3|
2,1,5.3|
2,2,6.5|
2,3,3.8|
2,4,8.2|
2,5,5.5|
2,6,4.4|
2,7,1.6|
3,0,5.4|
3,1,9.9|
3,2,7.3|
3,3,1.1|
3,4,8.6|
3,5,2.3|
3,6,1.8|
3,7,0.15|
4,0,7.4|
4,1,2.9|
4,2,6.6|
4,3,3.9|
4,4,6.3|
4,5,5.5|
4,6,1.3|
4,7,2.3|
5,0,0.56|
5,1,7.3|
5,2,4.4|
5,3,5.1|
5,4,9|
5,5,4.4|
5,6,7.4|
5,7,3.8|
6,0,2.9|
6,1,8.6|
6,2,5.2|
6,3,1.7|
6,4,2.9|
6,5,5.7|
6,6,0.013|
6,7,1.6|
7,0,3.1|
7,1,2.9|
7,2,7.2|
7,3,6.5|
7,4,3.9|
7,5,1.3|
7,6,2.9|
7,7,1.8|
];
constraint_x5_x1=[
0,0,8.8|
0,1,0.88|
0,2,4.1|
0,3,3.8|
0,4,6.6|
0,5,2.8|
0,6,3.6|
0,7,8|
1,0,7.8|
1,1,4.7|
1,2,9.8|
1,3,2.6|
1,4,1.2|
1,5,1.4|
1,6,4.3|
1,7,7.2|
2,0,9.7|
2,1,9.3|
2,2,3.9|
2,3,1.5|
2,4,0.013|
2,5,1.3|
2,6,7|
2,7,4.3|
3,0,8.4|
3,1,8.8|
3,2,1.5|
3,3,2.6|
3,4,8.6|
3,5,9.7|
3,6,5.8|
3,7,2.9|
4,0,4.4|
4,1,9.9|
4,2,7.4|
4,3,8.4|
4,4,0.0031|
4,5,3.4|
4,6,2.8|
4,7,4.2|
5,0,1.8|
5,1,0.18|
5,2,9.3|
5,3,3.3|
5,4,3.8|
5,5,0.44|
5,6,6.6|
5,7,4.1|
6,0,7.7|
6,1,5.4|
6,2,4.2|
6,3,1.7|
6,4,0.37|
6,5,7.7|
6,6,0.56|
6,7,5.5|
7,0,9.3|
7,1,8.3|
7,2,0.47|
7,3,9.1|
7,4,2.9|
7,5,7.3|
7,6,8.1|
7,7,6.5|
];
constraint_x6_x2=[
0,0,7.9|
0,1,8.8|
0,2,3.6|
0,3,4.7|
0,4,3.9|
0,5,4.5|
0,6,5.3|
0,7,1.5|
1,0,8.3|
1,1,6.9|
1,2,8.4|
1,3,7.3|
1,4,7.6|
1,5,3.4|
1,6,3.8|
1,7,9.7|
2,0,8.2|
2,1,0.33|
2,2,1.4|
2,3,6.4|
2,4,3.8|
2,5,9.5|
2,6,2.1|
2,7,6.1|
3,0,5.3|
3,1,1.3|
3,2,5.2|
3,3,8.9|
3,4,6.5|
3,5,9|
3,6,6.5|
3,7,6.8|
4,0,5.3|
4,1,5.1|
4,2,7.7|
4,3,0.87|
4,4,0.93|
4,5,5|
4,6,0.018|
4,7,6|
5,0,6.4|
5,1,6.3|
5,2,3.5|
5,3,7.9|
5,4,1.9|
5,5,3.5|
5,6,6.7|
5,7,2.4|
6,0,8.1|
6,1,7.8|
6,2,0.39|
6,3,2.6|
6,4,1.7|
6,5,0.85|
6,6,0.68|
6,7,5.2|
7,0,9.8|
7,1,8.5|
7,2,5|
7,3,0.64|
7,4,5.3|
7,5,5.7|
7,6,5.6|
7,7,7.3|
];
constraint_x6_x5=[
0,0,7.6|
0,1,9.9|
0,2,1.4|
0,3,5|
0,4,7.5|
0,5,8.7|
0,6,8.3|
0,7,1.6|
1,0,6.1|
1,1,2.4|
1,2,2.3|
1,3,7.9|
1,4,2.3|
1,5,7.4|
1,6,6.5|
1,7,7.9|
2,0,2.9|
2,1,5|
2,2,4.7|
2,3,0.86|
2,4,3.4|
2,5,7.5|
2,6,0.12|
2,7,5.1|
3,0,4.6|
3,1,0.48|
3,2,4.8|
3,3,7.5|
3,4,8.3|
3,5,9.6|
3,6,7|
3,7,8.6|
4,0,0.54|
4,1,5.7|
4,2,2.1|
4,3,9.8|
4,4,9.2|
4,5,9.9|
4,6,9.2|
4,7,7.4|
5,0,2|
5,1,7.8|
5,2,9.5|
5,3,4.2|
5,4,7.3|
5,5,9.8|
5,6,2.3|
5,7,2.3|
6,0,2.7|
6,1,9.8|
6,2,7.7|
6,3,7.8|
6,4,8.6|
6,5,1.5|
6,6,2.1|
6,7,7|
7,0,3.9|
7,1,4.6|
7,2,5.7|
7,3,4.6|
7,4,2.7|
7,5,4.7|
7,6,4.8|
7,7,4.5|
];
constraint_x7_x3=[
0,0,8.1|
0,1,6.5|
0,2,1.1|
0,3,6.8|
0,4,1.8|
0,5,3.9|
0,6,9|
0,7,3.7|
1,0,0.22|
1,1,3.4|
1,2,7.1|
1,3,5.9|
1,4,4.4|
1,5,8.8|
1,6,8.2|
1,7,4.4|
2,0,8.5|
2,1,0.17|
2,2,3.8|
2,3,8.9|
2,4,4.2|
2,5,6.3|
2,6,5.6|
2,7,1.5|
3,0,9|
3,1,9.9|
3,2,2|
3,3,3|
3,4,1.3|
3,5,1.5|
3,6,9.9|
3,7,6.4|
4,0,5.4|
4,1,1.8|
4,2,4.1|
4,3,3.3|
4,4,3.9|
4,5,1.1|
4,6,7.8|
4,7,1.4|
5,0,7.4|
5,1,6.7|
5,2,1|
5,3,3.9|
5,4,8.7|
5,5,0.11|
5,6,9.9|
5,7,4|
6,0,8.3|
6,1,2.6|
6,2,1.3|
6,3,2.7|
6,4,3.8|
6,5,9.8|
6,6,8.6|
6,7,4.3|
7,0,6|
7,1,0.64|
7,2,5.8|
7,3,2|
7,4,0.77|
7,5,1.7|
7,6,8.7|
7,7,4.6|
];
constraint_x7_x6=[
0,0,2.5|
0,1,4.6|
0,2,0.11|
0,3,7.5|
0,4,4.6|
0,5,0.94|
0,6,4.3|
0,7,8.6|
1,0,4.4|
1,1,6.9|
1,2,1.8|
1,3,4.7|
1,4,10|
1,5,9.1|
1,6,2.6|
1,7,8.7|
2,0,6.1|
2,1,0.85|
2,2,0.62|
2,3,3|
2,4,2.6|
2,5,5.8|
2,6,3.2|
2,7,1.2|
3,0,3.7|
3,1,6.2|
3,2,8.8|
3,3,8|
3,4,4.2|
3,5,8.6|
3,6,3.9|
3,7,3.2|
4,0,0.28|
4,1,9.3|
4,2,6.4|
4,3,0.97|
4,4,7.7|
4,5,5.6|
4,6,8.2|
4,7,7.5|
5,0,5.7|
5,1,8.8|
5,2,4.6|
5,3,1.1|
5,4,9.2|
5,5,0.86|
5,6,5.5|
5,7,8.7|
6,0,5.6|
6,1,0.72|
6,2,2.7|
6,3,5|
6,4,4.9|
6,5,6.6|
6,6,9.6|
6,7,5.6|
7,0,2.9|
7,1,5.7|
7,2,0.82|
7,3,0.65|
7,4,7.4|
7,5,0.049|
7,6,9.3|
7,7,3.2|
];
constraint_x8_x4=[
0,0,8.3|
0,1,9.1|
0,2,0.3|
0,3,0.5|
0,4,6.1|
0,5,0.72|
0,6,4.6|
0,7,9.4|
1,0,6.9|
1,1,5.4|
1,2,3.3|
1,3,0.8|
1,4,8.6|
1,5,7.5|
1,6,3.3|
1,7,3.7|
2,0,5.9|
2,1,7.6|
2,2,7.5|
2,3,8.5|
2,4,5.2|
2,5,3|
2,6,7.5|
2,7,9.8|
3,0,3.3|
3,1,8.8|
3,2,7.5|
3,3,6.9|
3,4,7.6|
3,5,0.8|
3,6,6.3|
3,7,3|
4,0,3.9|
4,1,1.5|
4,2,8.6|
4,3,4.5|
4,4,3.4|
4,5,7.4|
4,6,4.1|
4,7,8.6|
5,0,5.5|
5,1,6.6|
5,2,0.83|
5,3,8.1|
5,4,9.9|
5,5,7.6|
5,6,1|
5,7,2.9|
6,0,2.5|
6,1,6.1|
6,2,2.9|
6,3,2.3|
6,4,8|
6,5,9.7|
6,6,7.5|
6,7,2.5|
7,0,4.6|
7,1,7.9|
7,2,3.3|
7,3,0.86|
7,4,9.8|
7,5,1.4|
7,6,4.8|
7,7,8.7|
];
constraint_x8_x7=[
0,0,1.7|
0,1,5.1|
0,2,7.4|
0,3,0.91|
0,4,9.8|
0,5,8.4|
0,6,7.8|
0,7,2.2|
1,0,8.9|
1,1,2.6|
1,2,3.7|
1,3,1.4|
1,4,1.9|
1,5,4.7|
1,6,1.9|
1,7,7.9|
2,0,9.8|
2,1,6.4|
2,2,9.7|
2,3,5.9|
2,4,4.5|
2,5,4.9|
2,6,6.7|
2,7,2.6|
3,0,6.6|
3,1,1.3|
3,2,0.91|
3,3,3.7|
3,4,5.6|
3,5,2.9|
3,6,7.9|
3,7,1.8|
4,0,3.5|
4,1,0.91|
4,2,5.7|
4,3,7.1|
4,4,9.2|
4,5,7.8|
4,6,4.8|
4,7,4|
5,0,8|
5,1,7.6|
5,2,0.45|
5,3,2.7|
5,4,8.3|
5,5,9.9|
5,6,0.2|
5,7,5.1|
6,0,3.3|
6,1,0.072|
6,2,1.6|
6,3,7.8|
6,4,6.1|
6,5,7.5|
6,6,2.9|
6,7,9.5|
7,0,6|
7,1,8|
7,2,6.1|
7,3,3.3|
7,4,1.8|
7,5,2.9|
7,6,0.73|
7,7,4.6|
];
constraint_x9_x5=[
0,0,0.67|
0,1,1.8|
0,2,8.5|
0,3,5.5|
0,4,8.5|
0,5,5.3|
0,6,0.073|
0,7,9.8|
1,0,1.4|
1,1,1.1|
1,2,4.6|
1,3,7.9|
1,4,0.33|
1,5,8.1|
1,6,6.7|
1,7,3.9|
2,0,6.1|
2,1,8.3|
2,2,4.8|
2,3,1|
2,4,9.3|
2,5,4.4|
2,6,8.9|
2,7,4.8|
3,0,9.2|
3,1,1.8|
3,2,0.83|
3,3,3.7|
3,4,2.2|
3,5,2.9|
3,6,3|
3,7,3.3|
4,0,4.9|
4,1,4.6|
4,2,1.7|
4,3,7.1|
4,4,3.4|
4,5,3.2|
4,6,0.11|
4,7,9.8|
5,0,2.5|
5,1,0.051|
5,2,4.4|
5,3,5.3|
5,4,1.5|
5,5,9.4|
5,6,2.3|
5,7,4.7|
6,0,5.1|
6,1,1.4|
6,2,8.4|
6,3,7.3|
6,4,8.5|
6,5,1.5|
6,6,7.1|
6,7,2.6|
7,0,2|
7,1,1.2|
7,2,8.6|
7,3,0.15|
7,4,5.3|
7,5,6.7|
7,6,7|
7,7,2.6|
];
constraint_x10_x6=[
0,0,8.6|
0,1,0.55|
0,2,6.1|
0,3,7.1|
0,4,3.2|
0,5,0.99|
0,6,9.4|
0,7,4|
1,0,5.1|
1,1,4|
1,2,9.4|
1,3,7.2|
1,4,5|
1,5,0.54|
1,6,1.7|
1,7,3|
2,0,3|
2,1,1.1|
2,2,6.3|
2,3,4.6|
2,4,9|
2,5,2.3|
2,6,7.8|
2,7,1.7|
3,0,0.79|
3,1,7.2|
3,2,8.7|
3,3,3.4|
3,4,7.2|
3,5,8.6|
3,6,6.9|
3,7,5.7|
4,0,4|
4,1,7.9|
4,2,1.5|
4,3,3.3|
4,4,7|
4,5,4.8|
4,6,6.4|
4,7,5.9|
5,0,2.2|
5,1,3.6|
5,2,8.6|
5,3,6.2|
5,4,4.2|
5,5,0.95|
5,6,0.72|
5,7,4.5|
6,0,6.3|
6,1,3.6|
6,2,0.9|
6,3,6|
6,4,3.4|
6,5,6.1|
6,6,7.5|
6,7,6.1|
7,0,7.4|
7,1,9.4|
7,2,2|
7,3,3.9|
7,4,4.1|
7,5,8.2|
7,6,0.33|
7,7,4.4|
];
constraint_x11_x7=[
0,0,5.1|
0,1,1.1|
0,2,7.4|
0,3,3.6|
0,4,1|
0,5,9.9|
0,6,1.5|
0,7,1.7|
1,0,8|
1,1,1.9|
1,2,7.7|
1,3,1.5|
1,4,1.2|
1,5,3.8|
1,6,6.6|
1,7,7.4|
2,0,3.8|
2,1,3.2|
2,2,8.1|
2,3,2.1|
2,4,5.3|
2,5,7.9|
2,6,9.1|
2,7,0.37|
3,0,2.5|
3,1,0.92|
3,2,2.7|
3,3,9.8|
3,4,6|
3,5,7.5|
3,6,7.7|
3,7,6.5|
4,0,7.6|
4,1,2.4|
4,2,8.6|
4,3,9.5|
4,4,4.9|
4,5,3|
4,6,7.2|
4,7,4.1|
5,0,5.1|
5,1,0.41|
5,2,6.2|
5,3,6|
5,4,6.2|
5,5,1|
5,6,5.6|
5,7,4.6|
6,0,1.1|
6,1,2.6|
6,2,10|
6,3,9.6|
6,4,2|
6,5,2.9|
6,6,4.3|
6,7,4.9|
7,0,8.3|
7,1,0.17|
7,2,3.4|
7,3,8.4|
7,4,0.28|
7,5,6.8|
7,6,8.6|
7,7,4.7|
];
constraint_x12_x8=[
0,0,9.9|
0,1,1.2|
0,2,0.92|
0,3,7|
0,4,5.3|
0,5,3.1|
0,6,7.7|
0,7,1.3|
1,0,0.16|
1,1,0.75|
1,2,4.8|
1,3,0.29|
1,4,6|
1,5,0.94|
1,6,4.8|
1,7,2.5|
2,0,2.3|
2,1,6.3|
2,2,3.5|
2,3,0.95|
2,4,3.5|
2,5,6.2|
2,6,6.6|
2,7,3.1|
3,0,8.2|
3,1,6.1|
3,2,9.3|
3,3,8.4|
3,4,7.7|
3,5,1.1|
3,6,2.6|
3,7,6.9|
4,0,1.2|
4,1,9.3|
4,2,7|
4,3,4.9|
4,4,4.1|
4,5,6.5|
4,6,7.6|
4,7,3.5|
5,0,3|
5,1,5.2|
5,2,4.8|
5,3,9.5|
5,4,6.1|
5,5,3.5|
5,6,8.5|
5,7,8.6|
6,0,1.1|
6,1,9|
6,2,9|
6,3,5.9|
6,4,5.1|
6,5,4.1|
6,6,7.8|
6,7,8.9|
7,0,5.4|
7,1,0.12|
7,2,2.2|
7,3,1.9|
7,4,5.2|
7,5,3.8|
7,6,3.7|
7,7,3.1|
];
constraint_x13_x9=[
0,0,3.9|
0,1,8.4|
0,2,4.2|
0,3,5.5|
0,4,0.084|
0,5,0.16|
0,6,8.3|
0,7,4.7|
1,0,1.3|
1,1,1.2|
1,2,2.9|
1,3,5.1|
1,4,6.2|
1,5,0.28|
1,6,6.2|
1,7,5.1|
2,0,2.4|
2,1,1.3|
2,2,3.5|
2,3,9.8|
2,4,2.2|
2,5,8.6|
2,6,3.7|
2,7,4.3|
3,0,7.2|
3,1,4.1|
3,2,7|
3,3,3.2|
3,4,8.9|
3,5,5.1|
3,6,9.1|
3,7,5.4|
4,0,1.9|
4,1,4.3|
4,2,7.3|
4,3,0.6|
4,4,0.74|
4,5,6.2|
4,6,8.7|
4,7,7.3|
5,0,9.2|
5,1,4.1|
5,2,3.9|
5,3,2.2|
5,4,9.3|
5,5,9.4|
5,6,2.5|
5,7,0.89|
6,0,8.1|
6,1,0.47|
6,2,2.9|
6,3,3.3|
6,4,6.3|
6,5,6.2|
6,6,1.9|
6,7,0.39|
7,0,2.7|
7,1,3.1|
7,2,7.2|
7,3,9.6|
7,4,6.1|
7,5,5.4|
7,6,7.5|
7,7,7.8|
];
constraint_x14_x10=[
0,0,2.5|
0,1,2.3|
0,2,2.1|
0,3,8.7|
0,4,6.1|
0,5,7.7|
0,6,9.7|
0,7,7.7|
1,0,0.15|
1,1,9.5|
1,2,9.6|
1,3,6.3|
1,4,6|
1,5,5.6|
1,6,8.3|
1,7,9.5|
2,0,2.2|
2,1,1.9|
2,2,4.6|
2,3,0.89|
2,4,5.5|
2,5,3.9|
2,6,7.1|
2,7,8.5|
3,0,1.4|
3,1,5.6|
3,2,0.93|
3,3,1.3|
3,4,6.2|
3,5,9.7|
3,6,6.4|
3,7,9.8|
4,0,0.42|
4,1,5.2|
4,2,8.7|
4,3,6.9|
4,4,9.4|
4,5,1.2|
4,6,6.7|
4,7,4.4|
5,0,4.7|
5,1,3.3|
5,2,9.7|
5,3,7.2|
5,4,7.9|
5,5,9.3|
5,6,4.1|
5,7,8.2|
6,0,3.1|
6,1,1.6|
6,2,0.68|
6,3,9|
6,4,2.7|
6,5,0.21|
6,6,4.9|
6,7,9.9|
7,0,2.4|
7,1,1.4|
7,2,6.9|
7,3,2.5|
7,4,10|
7,5,9.2|
7,6,5.3|
7,7,2|
];
constraint_x1_y1=[
0,0,0.89|
0,1,6.9|
0,2,4.4|
0,3,5.1|
0,4,1.8|
0,5,6.4|
0,6,3.9|
0,7,0.52|
1,0,4.6|
1,1,2.3|
1,2,2.3|
1,3,2.5|
1,4,1.9|
1,5,2.3|
1,6,5.4|
1,7,9.4|
2,0,1.9|
2,1,5.3|
2,2,7.3|
2,3,7|
2,4,1.9|
2,5,6.6|
2,6,1.9|
2,7,2.1|
3,0,2.7|
3,1,4.3|
3,2,0.29|
3,3,4.6|
3,4,1.4|
3,5,7.8|
3,6,9.3|
3,7,5.3|
4,0,4.4|
4,1,6.9|
4,2,2.7|
4,3,1.9|
4,4,7.2|
4,5,8.4|
4,6,0.7|
4,7,4.4|
5,0,0.61|
5,1,4.1|
5,2,3.3|
5,3,7.4|
5,4,5|
5,5,8.2|
5,6,0.4|
5,7,6.3|
6,0,8.9|
6,1,2|
6,2,9.6|
6,3,2.2|
6,4,1.6|
6,5,3.8|
6,6,6|
6,7,5.1|
7,0,8.5|
7,1,5.7|
7,2,1.3|
7,3,4.8|
7,4,2.2|
7,5,2.2|
7,6,9|
7,7,6.7|
];
constraint_x2_y2=[
0,0,8.6|
0,1,8.3|
0,2,2.8|
0,3,2.6|
0,4,3.2|
0,5,9.4|
0,6,5.6|
0,7,4.1|
1,0,7|
1,1,1|
1,2,0.99|
1,3,2|
1,4,4.3|
1,5,5.1|
1,6,9.6|
1,7,3.3|
2,0,1.6|
2,1,2.5|
2,2,5.7|
2,3,0.24|
2,4,9.8|
2,5,3.5|
2,6,0.8|
2,7,6.3|
3,0,5.7|
3,1,4.4|
3,2,5.4|
3,3,0.85|
3,4,5.7|
3,5,1.1|
3,6,7.5|
3,7,3.6|
4,0,7.5|
4,1,1.3|
4,2,2.5|
4,3,0.67|
4,4,8.4|
4,5,5.6|
4,6,8.1|
4,7,9.1|
5,0,8.3|
5,1,8.8|
5,2,4.9|
5,3,0.94|
5,4,8.6|
5,5,2.9|
5,6,5.4|
5,7,9.2|
6,0,6.1|
6,1,8.5|
6,2,8.6|
6,3,7.6|
6,4,0.54|
6,5,7.2|
6,6,9.7|
6,7,3.3|
7,0,4.4|
7,1,5.9|
7,2,1.5|
7,3,2.9|
7,4,4.7|
7,5,9.1|
7,6,8.7|
7,7,9|
];
constraint_x3_y3=[
0,0,0.52|
0,1,6|
0,2,5.3|
0,3,6.3|
0,4,7.5|
0,5,1.4|
0,6,5|
0,7,3.8|
1,0,4.1|
1,1,0.077|
1,2,7.6|
1,3,2.2|
1,4,8.8|
1,5,7|
1,6,5.2|
1,7,7.9|
2,0,8.1|
2,1,2.1|
2,2,8.3|
2,3,9.2|
2,4,3.3|
2,5,2.1|
2,6,4.4|
2,7,8.8|
3,0,6.9|
3,1,2.7|
3,2,0.56|
3,3,5.4|
3,4,0.35|
3,5,0.62|
3,6,6.6|
3,7,1.6|
4,0,9.9|
4,1,5.6|
4,2,3.2|
4,3,1.4|
4,4,7.8|
4,5,5.9|
4,6,0.48|
4,7,5.2|
5,0,4.5|
5,1,6.6|
5,2,7.2|
5,3,8.4|
5,4,5.6|
5,5,1.4|
5,6,1|
5,7,0.4|
6,0,4.5|
6,1,0.21|
6,2,1.7|
6,3,9.4|
6,4,9.7|
6,5,6.2|
6,6,7.4|
6,7,9.1|
7,0,7.1|
7,1,1.6|
7,2,1.7|
7,3,4.4|
7,4,8.4|
7,5,0.27|
7,6,8.8|
7,7,3.6|
];
constraint_x4_y4=[
0,0,3.7|
0,1,0.43|
0,2,5.1|
0,3,0.24|
0,4,2.6|
0,5,9.4|
0,6,4.6|
0,7,3.1|
1,0,0.16|
1,1,7.8|
1,2,3.7|
1,3,7.7|
1,4,8.8|
1,5,3.5|
1,6,0.34|
1,7,9.1|
2,0,5.8|
2,1,2.2|
2,2,2.2|
2,3,8.6|
2,4,0.73|
2,5,3.1|
2,6,1.8|
2,7,0.67|
3,0,9.6|
3,1,9.4|
3,2,7.2|
3,3,7.9|
3,4,8.4|
3,5,3.6|
3,6,9.1|
3,7,0.43|
4,0,9.7|
4,1,5.4|
4,2,4|
4,3,3.7|
4,4,9.4|
4,5,3.2|
4,6,0.23|
4,7,0.66|
5,0,7.4|
5,1,8.5|
5,2,2.6|
5,3,2.9|
5,4,6.3|
5,5,9.8|
5,6,5.2|
5,7,7.7|
6,0,7.4|
6,1,1.1|
6,2,1.3|
6,3,9.5|
6,4,6.7|
6,5,8.7|
6,6,4.7|
6,7,5.7|
7,0,4.2|
7,1,5.7|
7,2,1.5|
7,3,2.3|
7,4,2.1|
7,5,5.1|
7,6,6.9|
7,7,2.9|
];
constraint_x5_y5=[
0,0,6|
0,1,7.3|
0,2,3.2|
0,3,8.6|
0,4,2.8|
0,5,9|
0,6,9.5|
0,7,3.9|
1,0,0.57|
1,1,3.5|
1,2,2.2|
1,3,8|
1,4,8|
1,5,7.8|
1,6,2.2|
1,7,3.9|
2,0,6.1|
2,1,6.9|
2,2,6.1|
2,3,4.3|
2,4,5.5|
2,5,6.1|
2,6,2.7|
2,7,7.3|
3,0,9.1|
3,1,3.9|
3,2,7.1|
3,3,1.3|
3,4,4.3|
3,5,3.2|
3,6,4.6|
3,7,2.5|
4,0,2.3|
4,1,0.9|
4,2,5|
4,3,6|
4,4,5.9|
4,5,4.4|
4,6,5.4|
4,7,5.7|
5,0,2.9|
5,1,0.61|
5,2,6.9|
5,3,7.5|
5,4,0.78|
5,5,7.8|
5,6,9.9|
5,7,1.7|
6,0,0.49|
6,1,3.6|
6,2,3.5|
6,3,6.9|
6,4,10|
6,5,2.3|
6,6,2.2|
6,7,7.6|
7,0,5.1|
7,1,7.6|
7,2,8.5|
7,3,2.1|
7,4,1.6|
7,5,4.6|
7,6,3.7|
7,7,4.6|
];
constraint_x6_y6=[
0,0,3.4|
0,1,6.9|
0,2,4|
0,3,4.2|
0,4,6.8|
0,5,5.6|
0,6,2.4|
0,7,8.4|
1,0,8.8|
1,1,0.74|
1,2,6.8|
1,3,1.2|
1,4,1.9|
1,5,8.7|
1,6,8.7|
1,7,6.6|
2,0,9.5|
2,1,0.43|
2,2,9.1|
2,3,3.8|
2,4,0.00043|
2,5,5.4|
2,6,7.6|
2,7,6.6|
3,0,5.1|
3,1,0.47|
3,2,9.6|
3,3,0.79|
3,4,2.7|
3,5,1.9|
3,6,0.84|
3,7,9.7|
4,0,4.5|
4,1,1.6|
4,2,3|
4,3,1.6|
4,4,0.91|
4,5,0.2|
4,6,4.5|
4,7,6.1|
5,0,5.7|
5,1,5.9|
5,2,9.6|
5,3,2.1|
5,4,8.2|
5,5,9.7|
5,6,2.8|
5,7,2.8|
6,0,6.4|
6,1,3.8|
6,2,3.7|
6,3,8.5|
6,4,5.6|
6,5,7.6|
6,6,5.1|
6,7,0.24|
7,0,0.96|
7,1,7.2|
7,2,1.9|
7,3,8.8|
7,4,3.7|
7,5,1.7|
7,6,2.5|
7,7,9.1|
];
initial_distribution_y1=[0.076,0.13,0.0069,0.25,0.15,0.04,0.22,0.13];
initial_distribution_y2=[0.008,0.011,0.21,0.22,0.16,0.2,0.063,0.14];
initial_distribution_y3=[0.27,0.073,0.047,0.11,0.28,0.19,0.016,0.016];
initial_distribution_y4=[0.068,0.13,0.2,0.022,0.17,0.034,0.28,0.1];
initial_distribution_y5=[0.16,0.097,0.13,0.082,0.032,0.19,0.13,0.17];
initial_distribution_y6=[0.23,0.013,0.13,0.12,0.075,0.044,0.18,0.21];
transition_y1=[
0.24,0.26,0.14,0.065,0.035,0.043,0.054,0.15|
0.077,0.012,0.24,0.062,0.11,0.27,0.19,0.041|
0.012,0.13,0.2,0.18,0.078,0.13,0.15,0.13|
0.23,0.069,0.033,0.14,0.21,0.14,0.051,0.12|
0.036,0.14,0.012,0.14,0.23,0.2,0.094,0.14|
0.1,0.11,0.13,0.12,0.15,0.12,0.12,0.15|
0.093,0.19,0.021,0.1,0.093,0.068,0.23,0.21|
0.027,0.011,0.0036,0.12,0.24,0.1,0.26,0.23|
];
transition_y2=[
0.017,0.092,0.16,0.12,0.23,0.13,0.18,0.078|
0.18,0.0026,0.13,0.062,0.22,0.19,0.12,0.092|
0.1,0.25,0.015,0.084,0.018,0.24,0.055,0.23|
0.14,0.0059,0.13,0.22,0.21,0.046,0.14,0.12|
0.12,0.18,0.29,0.0098,0.041,0.17,0.1,0.09|
0.1,0.094,0.13,0.21,0.011,0.22,0.063,0.17|
0.11,0.097,0.14,0.11,0.18,0.2,0.028,0.13|
0.22,0.031,0.1,0.093,0.11,0.13,0.25,0.066|
];
transition_y3=[
0.033,0.011,0.13,0.32,0.0097,0.26,0.14,0.1|
0.1,0.1,0.23,0.074,0.042,0.27,0.063,0.12|
0.15,0.06,0.062,0.28,0.024,0.11,0.023,0.29|
0.045,0.082,0.1,0.23,0.017,0.072,0.19,0.26|
0.37,0.062,0.044,0.098,0.08,0.13,0.13,0.088|
0.0041,0.11,0.062,0.032,0.14,0.26,0.25,0.14|
0.052,0.02,0.28,0.034,0.069,0.33,0.083,0.14|
0.016,0.093,0.17,0.13,0.15,0.17,0.11,0.16|
];
transition_y4=[
0.022,0.033,0.22,0.18,0.25,0.23,0.016,0.049|
0.15,0.18,0.12,0.035,0.085,0.15,0.17,0.11|
0.017,0.2,0.053,0.16,0.11,0.19,0.031,0.24|
0.098,0.023,0.27,0.096,0.13,0.12,0.066,0.2|
0.27,0.0056,0.024,0.25,0.31,0.024,0.055,0.069|
0.16,0.13,0.056,0.17,0.14,0.15,0.14,0.048|
0.047,0.055,0.29,0.081,0.1,0.19,0.19,0.039|
0.0041,0.23,0.16,0.2,0.12,0.0054,0.21,0.078|
];
transition_y5=[
0.027,0.27,0.093,0.11,0.13,0.15,0.14,0.078|
0.16,0.16,0.11,0.13,0.15,0.14,0.1,0.058|
0.061,0.3,0.026,0.1,0.21,0.063,0.04,0.2|
0.054,0.088,0.15,0.13,0.049,0.23,0.28,0.025|
0.011,0.16,0.085,0.16,0.21,0.12,0.16,0.1|
0.081,0.11,0.063,0.2,0.019,0.2,0.2,0.13|
0.11,0.22,0.12,0.0064,0.068,0.073,0.26,0.14|
0.069,0.28,0.15,0.14,0.06,0.054,0.23,0.013|
];
transition_y6=[
0.092,0.23,0.16,0.1,0.072,0.22,0.044,0.09|
0.18,0.079,0.0068,0.31,0.068,0.14,0.014,0.2|
0.097,0.041,0.22,0.16,0.12,0.2,0.05,0.12|
0.22,0.038,0.061,0.21,0.16,0.18,0.1,0.025|
0.0027,0.16,0.11,0.079,0.075,0.24,0.11,0.23|
0.019,0.13,0.11,0.13,0.12,0.13,0.19,0.17|
0.069,0.15,0.17,0.18,0.077,0.17,0.021,0.16|
0.18,0.14,0.12,0.13,0.15,0.043,0.06,0.18|
];
